13,8	0,0	8,4	8,7	0,0	0,0	0,0	0,0	0,0	6,8
6,2	11,4	0,0	17,7	6,1	0,0	0,0	19,3	0,0	0,0
0,0	0,0	9,9	0,0	7,7	18,9	0,0	0,0	15,1	0,0
8,8	0,0	9,5	0,0	0,0	0,0	5,7	0,0	0,0	0,0
0,0	13,1	0,0	7,6	10,2	0,0	0,0	8,5	0,0	0,0
0,0	7,6	6,6	0,0	8,0	11,0	0,0	0,0	12,4	0,0
0,0	15,0	0,0	16,8	0,0	0,0	14,4	0,0	0,0	18,0
7,7	0,0	17,5	0,0	0,0	0,0	0,0	0,0	0,0	6,0
0,0	18,1	0,0	12,1	19,9	0,0	0,0	18,5	0,0	0,0
0,0	0,0	7,5	0,0	0,0	5,8	11,6	0,0	0,0	12,7
0,0	19,9	0,0	0,0	16,4	0,0	11,0	0,0	15,3	8,2
6,2	0,0	10,9	0,0	18,5	0,0	6,4	12,5	15,0	0,0
0,0	8,8	0,0	0,0	0,0	12,2	0,0	15,5	14,3	18,4
13,9	7,8	19,2	0,0	0,0	7,3	0,0	13,0	11,6	0,0
10,9	0,0	16,9	0,0	16,1	13,8	5,9	5,4	0,0	0,0
0,0	8,2	0,0	18,2	0,0	7,3	0,0	5,8	0,0	0,0
7,1	0,0	5,3	12,4	7,8	0,0	0,0	16,0	0,0	0,0
0,0	0,0	7,7	0,0	0,0	17,8	15,8	0,0	17,3	11,3
16,8	0,0	0,0	12,4	6,9	12,7	17,1	11,0	0,0	11,2
0,0	15,1	0,0	14,2	0,0	0,0	8,2	0,0	18,3	14,0
									
4,3	4,0	3,8	3,7	3,9	3,5	3,6	2,8	4,0	3,6
